networks/zoo_72_506/zoo_72_506.txt
Number of groups: 37.000000000000121
Flow 5: {4 12} {12 48} 
Flow 8: {18 54} 
Flow 11: {7 24} {24 60} 
Flow 14: {27 63} 
Flow 17: {7 31} {31 67} 
Flow 19: {31 33} {33 69} 
Flow 22: {1 37} 
Flow 62: {7 5} {5 41} 
Flow 65: {10 6} {6 9} {9 45} 
Flow 67: {4 11} {11 47} 
Flow 72: {7 17} {17 53} 
Flow 74: {22 21} {21 20} {20 56} 
Flow 77: {2 7} Flow 88: {10 6} {6 34} {34 70} 
Flow 90: {28 27} Flow 91: {5 7} {7 43} 
Flow 95: {5 7} {7 31} {31 67} 
Flow 96: {5 7} {7 31} 
Flow 115: {31 7} {7 23} {23 59} 
Flow 125: {6 34} {34 33} {33 69} 
Flow 130: {3 39} 
Flow 133: {35 34} {34 6} {6 42} 
Flow 141: {4 15} {15 51} 
Flow 142: {1 4} {4 16} {16 52} 
Flow 162: {8 7} {7 2} {2 1} {1 37} 
Flow 165: {1 4} {4 12} {12 48} 
Flow 165: {7 2} Flow 167: {1 4} {4 15} {15 51} 
Flow 172: {8 7} {7 35} {35 27} Flow 178: {7 35} {35 71} 
Flow 180: {9 6} {6 34} {34 35} {35 27} {27 63} 
Flow 181: {9 6} {6 32} {32 31} {31 67} 
Flow 182: {9 6} {6 34} {34 70} 
Flow 203: {6 34} {34 33} {33 69} 
Flow 206: {11 4} 
Flow 206: {4 1} {1 2} 
Flow 207: {12 4} {4 1} {1 2} {2 7} {7 43} 
Flow 211: {1 2} Flow 220: {14 4} {4 10} {10 25} {25 61} 
Flow 227: {15 4} {4 1} {1 2} {2 7} {7 43} 
Flow 228: {15 4} {4 3} {3 22} {22 58} 
Flow 236: {16 4} {4 28} {28 27} {27 63} 
Flow 239: {16 4} {4 28} {28 27} {27 35} {35 71} 
Flow 243: {18 7} {7 35} {35 27} {27 28} {28 64} 
Flow 251: {19 25} {25 10} {10 4} {4 13} {13 49} 
Flow 262: {4 1} {1 37} 
Flow 266: {21 22} {22 3} {3 4} {4 11} {11 47} 
Flow 267: {21 22} {22 3} {3 4} {4 12} {12 48} 
Flow 269: {21 22} {22 3} {3 4} {4 15} {15 51} 
Flow 274: {20 19} {19 26} {26 62} 
Flow 302: {23 7} {7 18} {18 54} 
Flow 303: {23 7} {7 2} {2 1} {3 22} {22 21} {21 57} 
Flow 304: {22 58} 
Flow 308: {23 7} {7 31} 
Flow 308: {31 67} 
Flow 313: {24 7} {7 8} {8 44} 
Flow 314: {24 7} {7 18} {18 54} 
Flow 315: {24 7} {7 2} {2 1} {1 4} {4 3} Flow 329: {4 11} {11 47} 
Flow 335: {25 19} {19 20} {20 21} {21 57} 
Flow 341: {31 30} {30 66} 
Flow 348: {4 40} 
Flow 355: {28 4} {4 14} {14 50} 
Flow 362: {35 7} {7 24} {24 60} 
Flow 370: {34 33} {33 69} 
Flow 380: {27 35} Flow 392: {7 35} {35 27} {27 63} 
Flow 396: {29 31} {31 33} {33 34} {34 70} 
Flow 403: {30 31} {31 32} {32 68} 
Flow 407: {2 38} 
Flow 413: {32 6} {6 10} {10 46} 
Flow 436: {27 36} {36 72} 
Flow 456: {33 31} {31 29} {29 65} 
Flow 473: {34 35} {35 7} {7 24} {24 60} 
Flow 502: {27 35} {35 7} {7 43} 
Flow 504: {36 27} {27 35} Flow 506: {36 27} {27 35} {35 71} 
Time taken running everything: 8 seconds
