networks/zoo_72_506/standard/zoo_72_506.sol
<?xml version = "1.0" encoding="UTF-8" standalone="yes"?>
<CPLEXSolution version="1.2">
 <header
   problemName="networks/zoo_72_506/zoo_72_506.lp"
   solutionName="incumbent"
   solutionIndex="-1"
   objectiveValue="37.000000000000121"
   solutionTypeValue="3"
   solutionTypeString="primal"
   solutionStatusValue="101"
   solutionStatusString="integer optimal solution"
   solutionMethodString="mip"
   primalFeasible="1"
   dualFeasible="1"
   MIPNodes="0"
   MIPIterations="11355"
   writeLevel="3"/>
 <quality
   epInt="1.0000000000000001e-05"
   epRHS="9.9999999999999995e-07"
   maxIntInfeas="2.000000165480742e-09"
   maxPrimalInfeas="1.2000000992884452e-08"
   maxX="4"
   maxSlack="10"/>
 <variables>
  <variable name="Y(17,31)" index="1166" value="-1.0791367799356522e-13"/>
  <variable name="Y(21,35)" index="1454" value="-3.7479753655312858e-14"/>
  <variable name="Y(61,2)" index="4261" value="1"/>
  <variable name="Y(62,5)" index="4335" value="1"/>
  <variable name="Y(70,14)" index="4912" value="1"/>
  <variable name="Y(74,20)" index="5202" value="1"/>
  <variable name="Y(90,36)" index="6354" value="0.99999999999971545"/>
  <variable name="Y(93,27)" index="6558" value="-8.5360166856868657e-13"/>
  <variable name="Y(94,28)" index="6630" value="1"/>
  <variable name="Y(95,5)" index="6678" value="1.2190248810384219e-13"/>
  <variable name="Y(95,31)" index="6704" value="-1.2190248810384219e-13"/>
  <variable name="Y(98,35)" index="6921" value="1.2268170409011354e-12"/>
  <variable name="Y(115,23)" index="8116" value="1"/>
  <variable name="Y(130,3)" index="9161" value="1"/>
  <variable name="Y(133,6)" index="9377" value="1"/>
  <variable name="Y(142,16)" index="10026" value="1"/>
  <variable name="Y(161,36)" index="11395" value="2.8453388952289551e-13"/>
  <variable name="Y(162,1)" index="11431" value="1"/>
  <variable name="Y(165,12)" index="11655" value="1"/>
  <variable name="Y(181,31)" index="12810" value="1"/>
  <variable name="Y(206,11)" index="14565" value="1"/>
  <variable name="Y(211,31)" index="14940" value="2.298161660974074e-13"/>
  <variable name="Y(214,35)" index="15157" value="0.99999999999936695"/>
  <variable name="Y(220,25)" index="15573" value="1"/>
  <variable name="Y(228,22)" index="16138" value="1"/>
  <variable name="Y(235,7)" index="16620" value="1"/>
  <variable name="Y(245,32)" index="17355" value="1"/>
  <variable name="Y(251,13)" index="17762" value="1"/>
  <variable name="Y(266,11)" index="18825" value="1"/>
  <variable name="Y(274,26)" index="19408" value="1"/>
  <variable name="Y(302,18)" index="21388" value="1"/>
  <variable name="Y(313,8)" index="22159" value="1"/>
  <variable name="Y(325,4)" index="23007" value="1"/>
  <variable name="Y(335,21)" index="23734" value="1"/>
  <variable name="Y(337,24)" index="23879" value="-3.9645544267757604e-13"/>
  <variable name="Y(341,30)" index="24169" value="1"/>
  <variable name="Y(344,33)" index="24385" value="1"/>
  <variable name="Y(351,9)" index="24858" value="1"/>
  <variable name="Y(356,15)" index="25219" value="1"/>
  <variable name="Y(357,17)" index="25292" value="1"/>
  <variable name="Y(362,24)" index="25654" value="3.9645544267757604e-13"/>
  <variable name="Y(396,34)" index="28078" value="1"/>
  <variable name="Y(404,30)" index="28642" value="1"/>
  <variable name="Y(413,10)" index="29261" value="1"/>
  <variable name="Y(456,29)" index="32333" value="1"/>
  <variable name="Y(473,24)" index="33535" value="1"/>
  <variable name="Y(503,27)" index="35668" value="1.0000000000008535"/>
  <variable name="Y(506,35)" index="35889" value="-5.5626751991422086e-13"/>
  <variable name="X(1,2,61)" index="35986" value="-4.2082416581017794e-13"/>
  <variable name="X(1,2,211)" index="36136" value="4.2082416581017794e-13"/>
  <variable name="X(1,2,235)" index="36160" value="1"/>
  <variable name="X(1,4,165)" index="36596" value="1"/>
  <variable name="X(1,37,162)" index="37099" value="1"/>
  <variable name="X(2,1,162)" index="37605" value="1"/>
  <variable name="X(2,7,211)" index="38160" value="1.0520341136726026e-13"/>
  <variable name="X(2,7,216)" index="38165" value="1.6228069811102724e-13"/>
  <variable name="X(2,7,235)" index="38184" value="1"/>
  <variable name="X(2,7,337)" index="38286" value="-1.1893663280327282e-12"/>
  <variable name="X(2,38,61)" index="38516" value="1"/>
  <variable name="X(3,4,266)" index="39227" value="1"/>
  <variable name="X(3,22,228)" index="39695" value="1"/>
  <variable name="X(3,39,130)" index="40103" value="1"/>
  <variable name="X(4,1,235)" index="40714" value="1"/>
  <variable name="X(4,3,228)" index="41213" value="1"/>
  <variable name="X(4,10,220)" index="41711" value="1"/>
  <variable name="X(4,11,266)" index="42263" value="1"/>
  <variable name="X(4,12,165)" index="42668" value="1"/>
  <variable name="X(4,13,251)" index="43260" value="1"/>
  <variable name="X(4,14,70)" index="43585" value="1"/>
  <variable name="X(4,15,356)" index="44377" value="1"/>
  <variable name="X(4,16,142)" index="44669" value="1"/>
  <variable name="X(4,28,214)" index="45247" value="1"/>
  <variable name="X(4,40,325)" index="45864" value="1"/>
  <variable name="X(5,7,93)" index="46138" value="-1.2804025028530298e-12"/>
  <variable name="X(5,7,94)" index="46139" value="1"/>
  <variable name="X(5,7,98)" index="46143" value="1.2268170409011354e-12"/>
  <variable name="X(5,41,62)" index="46613" value="1"/>
  <variable name="X(6,9,351)" index="47408" value="1"/>
  <variable name="X(6,10,413)" index="47976" value="1"/>
  <variable name="X(6,32,181)" index="48250" value="1"/>
  <variable name="X(6,34,344)" index="48919" value="1"/>
  <variable name="X(6,42,133)" index="49214" value="1"/>
  <variable name="X(7,2,162)" index="49749" value="1"/>
  <variable name="X(7,5,62)" index="50155" value="1"/>
  <variable name="X(7,8,313)" index="50912" value="1"/>
  <variable name="X(7,17,357)" index="51462" value="1"/>
  <variable name="X(7,18,302)" index="51913" value="1"/>
  <variable name="X(7,23,115)" index="52232" value="1"/>
  <variable name="X(7,24,337)" index="52960" value="-3.9645544267757604e-13"/>
  <variable name="X(7,24,362)" index="52985" value="3.9645544267757604e-13"/>
  <variable name="X(7,24,473)" index="53096" value="1"/>
  <variable name="X(7,31,17)" index="53146" value="-1.0791367799356522e-13"/>
  <variable name="X(7,31,95)" index="53224" value="-1.2190248810384219e-13"/>
  <variable name="X(7,31,211)" index="53340" value="2.298161660974074e-13"/>
  <variable name="X(7,31,245)" index="53374" value="1"/>
  <variable name="X(7,35,93)" index="53728" value="-1.2804025028530298e-12"/>
  <variable name="X(7,35,94)" index="53729" value="1"/>
  <variable name="X(7,35,98)" index="53733" value="1.2668794494201133e-12"/>
  <variable name="X(7,43,235)" index="54376" value="1"/>
  <variable name="X(8,7,162)" index="54809" value="1"/>
  <variable name="X(8,44,313)" index="55466" value="1"/>
  <variable name="X(9,6,181)" index="55840" value="1"/>
  <variable name="X(9,45,351)" index="56516" value="1"/>
  <variable name="X(10,4,251)" index="56922" value="1"/>
  <variable name="X(10,6,277)" index="57454" value="-2.000000165480742e-09"/>
  <variable name="X(10,6,344)" index="57521" value="1.0000000020000002"/>
  <variable name="X(10,25,220)" index="57903" value="1"/>
  <variable name="X(10,46,413)" index="58602" value="1"/>
  <variable name="X(11,4,206)" index="58901" value="1"/>
  <variable name="X(11,47,266)" index="59467" value="1"/>
  <variable name="X(12,4,214)" index="59921" value="1"/>
  <variable name="X(12,48,165)" index="60378" value="1"/>
  <variable name="X(13,49,251)" index="60970" value="1"/>
  <variable name="X(14,4,220)" index="61445" value="1"/>
  <variable name="X(14,50,70)" index="61801" value="1"/>
  <variable name="X(15,4,228)" index="62465" value="1"/>
  <variable name="X(15,51,356)" index="63099" value="1"/>
  <variable name="X(16,4,235)" index="63484" value="1"/>
  <variable name="X(16,52,142)" index="63897" value="1"/>
  <variable name="X(17,53,357)" index="64618" value="1"/>
  <variable name="X(18,7,245)" index="65012" value="1"/>
  <variable name="X(18,54,302)" index="65575" value="1"/>
  <variable name="X(19,20,335)" index="66114" value="1"/>
  <variable name="X(19,25,251)" index="66536" value="1"/>
  <variable name="X(19,26,274)" index="67065" value="1"/>
  <variable name="X(20,19,274)" index="67571" value="1"/>
  <variable name="X(20,21,335)" index="68138" value="1"/>
  <variable name="X(20,56,74)" index="68383" value="1"/>
  <variable name="X(21,20,74)" index="68889" value="1"/>
  <variable name="X(21,22,266)" index="69587" value="1"/>
  <variable name="X(21,57,335)" index="70162" value="1"/>
  <variable name="X(22,3,266)" index="70599" value="1"/>
  <variable name="X(22,21,74)" index="70913" value="1"/>
  <variable name="X(22,58,228)" index="71573" value="1"/>
  <variable name="X(23,7,302)" index="72153" value="1"/>
  <variable name="X(23,59,115)" index="72472" value="1"/>
  <variable name="X(24,7,313)" index="73176" value="1"/>
  <variable name="X(24,60,337)" index="73706" value="-3.9645544267757604e-13"/>
  <variable name="X(24,60,362)" index="73731" value="3.9645544267757604e-13"/>
  <variable name="X(24,60,473)" index="73842" value="1"/>
  <variable name="X(25,10,251)" index="74126" value="1"/>
  <variable name="X(25,19,335)" index="74716" value="1"/>
  <variable name="X(25,61,220)" index="75107" value="1"/>
  <variable name="X(26,62,274)" index="75667" value="1"/>
  <variable name="X(27,28,94)" index="75993" value="1"/>
  <variable name="X(27,35,214)" index="76619" value="0.99999999999936695"/>
  <variable name="X(27,35,362)" index="76767" value="8.9203217937826247e-13"/>
  <variable name="X(27,35,506)" index="76911" value="-2.5893337125975475e-13"/>
  <variable name="X(27,36,90)" index="77001" value="0.99999999999971545"/>
  <variable name="X(27,36,161)" index="77072" value="2.8453388952289551e-13"/>
  <variable name="X(27,63,93)" index="77510" value="-8.5360166856868657e-13"/>
  <variable name="X(27,63,503)" index="77920" value="1.0000000000008535"/>
  <variable name="X(28,4,356)" index="78279" value="1"/>
  <variable name="X(28,27,214)" index="78643" value="1"/>
  <variable name="X(28,64,94)" index="79029" value="1"/>
  <variable name="X(29,31,396)" index="79837" value="1"/>
  <variable name="X(29,65,456)" index="80403" value="1"/>
  <variable name="X(30,31,404)" index="80857" value="1"/>
  <variable name="X(30,66,341)" index="81300" value="1"/>
  <variable name="X(31,7,115)" index="81580" value="1"/>
  <variable name="X(31,29,456)" index="82427" value="1"/>
  <variable name="X(31,30,341)" index="82818" value="1"/>
  <variable name="X(31,32,245)" index="83228" value="1"/>
  <variable name="X(31,33,396)" index="83885" value="1"/>
  <variable name="X(31,67,17)" index="84012" value="-1.0791367799356522e-13"/>
  <variable name="X(31,67,95)" index="84090" value="-1.2190248810384219e-13"/>
  <variable name="X(31,67,181)" index="84176" value="1"/>
  <variable name="X(31,67,211)" index="84206" value="2.298161660974074e-13"/>
  <variable name="X(32,6,413)" index="84914" value="1"/>
  <variable name="X(32,31,181)" index="85188" value="1"/>
  <variable name="X(32,68,245)" index="85758" value="1"/>
  <variable name="X(33,31,456)" index="86475" value="1"/>
  <variable name="X(33,34,396)" index="86921" value="1"/>
  <variable name="X(33,69,344)" index="87375" value="1"/>
  <variable name="X(34,6,351)" index="87888" value="1"/>
  <variable name="X(34,33,344)" index="88387" value="1"/>
  <variable name="X(34,35,473)" index="89022" value="1"/>
  <variable name="X(34,70,396)" index="89451" value="1"/>
  <variable name="X(35,7,362)" index="89923" value="2.9733414865446571e-13"/>
  <variable name="X(35,7,473)" index="90034" value="1"/>
  <variable name="X(35,7,504)" index="90065" value="-2.9733414865446571e-13"/>
  <variable name="X(35,27,93)" index="90160" value="-8.5360166856868657e-13"/>
  <variable name="X(35,27,94)" index="90161" value="1"/>
  <variable name="X(35,27,161)" index="90228" value="8.5360166856868657e-13"/>
  <variable name="X(35,34,351)" index="90924" value="1"/>
  <variable name="X(35,71,21)" index="91100" value="-3.7479753655312858e-14"/>
  <variable name="X(35,71,98)" index="91177" value="1.2268170409011354e-12"/>
  <variable name="X(35,71,214)" index="91293" value="0.99999999999936695"/>
  <variable name="X(35,71,506)" index="91585" value="-5.5626751991422086e-13"/>
  <variable name="X(36,27,503)" index="92088" value="1.0000000000008535"/>
  <variable name="X(36,27,506)" index="92091" value="-8.5360166856868657e-13"/>
  <variable name="X(36,72,90)" index="92181" value="0.99999999999971545"/>
  <variable name="X(36,72,161)" index="92252" value="2.8453388952289551e-13"/>
  <variable name="C(17,31)" index="92664" value="-1.0791367799356522e-13"/>
  <variable name="C(61,2)" index="92846" value="-4.2082416581017794e-13"/>
  <variable name="C(62,5)" index="92851" value="1"/>
  <variable name="C(70,14)" index="92874" value="1"/>
  <variable name="C(74,21)" index="92890" value="1"/>
  <variable name="C(74,20)" index="92891" value="2"/>
  <variable name="C(90,36)" index="92959" value="0.99999999999971545"/>
  <variable name="C(93,7)" index="92970" value="-1.2804025028530298e-12"/>
  <variable name="C(93,35)" index="92971" value="-2.5608050057060597e-12"/>
  <variable name="C(93,27)" index="92972" value="-3.4144066742747463e-12"/>
  <variable name="C(94,7)" index="92974" value="1"/>
  <variable name="C(94,35)" index="92975" value="2"/>
  <variable name="C(94,27)" index="92976" value="3"/>
  <variable name="C(94,28)" index="92977" value="4"/>
  <variable name="C(95,7)" index="92979" value="-1.2190248810384219e-13"/>
  <variable name="C(95,31)" index="92980" value="-2.4380497620768438e-13"/>
  <variable name="C(98,7)" index="92990" value="1.2268170409011354e-12"/>
  <variable name="C(98,35)" index="92991" value="2.4936964903212487e-12"/>
  <variable name="C(115,7)" index="93064" value="1"/>
  <variable name="C(115,23)" index="93065" value="1.9999999999999991"/>
  <variable name="C(142,16)" index="93169" value="1"/>
  <variable name="C(161,27)" index="93241" value="8.5360166856868657e-13"/>
  <variable name="C(161,36)" index="93242" value="1.138135558091582e-12"/>
  <variable name="C(162,7)" index="93244" value="1"/>
  <variable name="C(162,2)" index="93245" value="2"/>
  <variable name="C(162,1)" index="93246" value="3"/>
  <variable name="C(165,4)" index="93259" value="1"/>
  <variable name="C(165,12)" index="93260" value="2"/>
  <variable name="C(181,6)" index="93336" value="1"/>
  <variable name="C(181,32)" index="93337" value="2"/>
  <variable name="C(181,31)" index="93338" value="3"/>
  <variable name="C(211,2)" index="93457" value="4.2082416581017794e-13"/>
  <variable name="C(211,7)" index="93458" value="5.260275771774382e-13"/>
  <variable name="C(211,31)" index="93459" value="9.1926466438962962e-13"/>
  <variable name="C(214,4)" index="93471" value="1"/>
  <variable name="C(214,28)" index="93472" value="2"/>
  <variable name="C(214,27)" index="93473" value="3"/>
  <variable name="C(214,35)" index="93474" value="3.9999999999993667"/>
  <variable name="C(216,7)" index="93484" value="1.6228069811102724e-13"/>
  <variable name="C(220,4)" index="93502" value="1"/>
  <variable name="C(220,10)" index="93503" value="2"/>
  <variable name="C(220,25)" index="93504" value="3"/>
  <variable name="C(228,4)" index="93539" value="1"/>
  <variable name="C(228,3)" index="93540" value="2"/>
  <variable name="C(228,22)" index="93541" value="3"/>
  <variable name="C(235,4)" index="93571" value="1"/>
  <variable name="C(235,1)" index="93572" value="2"/>
  <variable name="C(235,2)" index="93573" value="3"/>
  <variable name="C(235,7)" index="93574" value="4"/>
  <variable name="C(245,7)" index="93617" value="1"/>
  <variable name="C(245,31)" index="93618" value="2"/>
  <variable name="C(245,32)" index="93619" value="3"/>
  <variable name="C(251,25)" index="93652" value="1"/>
  <variable name="C(251,10)" index="93653" value="2"/>
  <variable name="C(251,4)" index="93654" value="3"/>
  <variable name="C(251,13)" index="93655" value="4"/>
  <variable name="C(266,22)" index="93740" value="1"/>
  <variable name="C(266,3)" index="93741" value="2"/>
  <variable name="C(266,4)" index="93742" value="3"/>
  <variable name="C(266,11)" index="93743" value="4"/>
  <variable name="C(274,19)" index="93783" value="1"/>
  <variable name="C(274,26)" index="93784" value="2"/>
  <variable name="C(277,6)" index="93801" value="-2.000000165480742e-09"/>
  <variable name="C(302,7)" index="93939" value="1"/>
  <variable name="C(302,18)" index="93940" value="2"/>
  <variable name="C(313,7)" index="93989" value="1"/>
  <variable name="C(313,8)" index="93990" value="2"/>
  <variable name="C(335,19)" index="94094" value="1"/>
  <variable name="C(335,20)" index="94095" value="2"/>
  <variable name="C(335,21)" index="94096" value="3"/>
  <variable name="C(337,7)" index="94107" value="-1.1893663280327282e-12"/>
  <variable name="C(337,24)" index="94108" value="-1.5858217707103042e-12"/>
  <variable name="C(341,30)" index="94126" value="1"/>
  <variable name="C(344,6)" index="94138" value="1.0000000020000002"/>
  <variable name="C(344,34)" index="94139" value="2.0000000020000002"/>
  <variable name="C(344,33)" index="94140" value="3.0000000030000002"/>
  <variable name="C(351,34)" index="94166" value="1"/>
  <variable name="C(351,6)" index="94167" value="2"/>
  <variable name="C(351,9)" index="94168" value="3.0000000030000002"/>
  <variable name="C(356,4)" index="94187" value="1"/>
  <variable name="C(356,15)" index="94188" value="2"/>
  <variable name="C(357,17)" index="94192" value="1"/>
  <variable name="C(362,35)" index="94213" value="8.9203217937826247e-13"/>
  <variable name="C(362,7)" index="94214" value="1.1893663280327282e-12"/>
  <variable name="C(362,24)" index="94215" value="1.5858217707103042e-12"/>
  <variable name="C(396,31)" index="94355" value="1"/>
  <variable name="C(396,33)" index="94356" value="2"/>
  <variable name="C(396,34)" index="94357" value="3"/>
  <variable name="C(413,6)" index="94423" value="1"/>
  <variable name="C(413,10)" index="94424" value="2"/>
  <variable name="C(456,31)" index="94625" value="1"/>
  <variable name="C(456,29)" index="94626" value="2"/>
  <variable name="C(473,35)" index="94693" value="1"/>
  <variable name="C(473,7)" index="94694" value="2"/>
  <variable name="C(473,24)" index="94695" value="3"/>
  <variable name="C(503,27)" index="94805" value="1.0000000000008535"/>
  <variable name="C(506,27)" index="94816" value="-8.5360166856868657e-13"/>
  <variable name="C(506,35)" index="94817" value="-1.1125350398284413e-12"/>
 </variables>
</CPLEXSolution>
